c Maximum weighted clique instances generated from exactcolors.
c cutoff: 16777215.
c A clique of value > scalef (16777215) defines an improving stable sets for coloring.
p edge 42 0
n 1 16777215
n 2 16777215
n 3 16777215
n 4 16777215
n 5 16777215
n 6 16777215
n 7 16777215
n 8 16777215
n 9 16777215
n 10 16777215
n 11 16777215
n 12 16777215
n 13 16777215
n 14 16777215
n 15 16777215
n 16 16777215
n 17 16777215
n 18 16777215
n 19 16777215
n 20 16777215
n 21 16777215
n 22 16777215
n 23 16777215
n 24 16777215
n 25 16777215
n 26 16777215
n 27 16777215
n 28 16777215
n 29 16777215
n 30 16777215
n 31 16777215
n 32 16777215
n 33 16777215
n 34 16777215
n 35 16777215
n 36 16777215
n 37 16777215
n 38 16777215
n 39 16777215
n 40 16777215
n 41 16777215
n 42 16777215
